! GAMESS Test Job 00. 

 $CONTRL SCFTYP=RHF RUNTYP=OPTIMIZE COORD=ZMT NZVAR=0 $END 
 $SYSTEM TIMLIM=2 MEMORY=500000 $END 
 $STATPT OPTTOL=1.0E-5  $END 
 $BASIS  GBASIS=STO NGAUSS=2 $END 
 $GUESS  GUESS=HUCKEL $END 
 $DATA 
Methylene...1-A-1 state...RHF/STO-2G
Cnv  2
 
C
H  1 rCH
H  1 rCH  2 aHCH
 
rCH=1.09
aHCH=110.0 
 $END

